Route 1: 0 72 70 28 42 25 90 1 0
Route 2: 0 32 81 51 85 84 44 65 59 0
Route 3: 0 15 36 41 57 53 93 47 0
Route 4: 0 94 62 23 18 31 74 24 49 45 95 20 0
Route 5: 0 37 14 29 86 13 21 0
Route 6: 0 26 8 3 60 7 56 100 0
Route 7: 0 83 99 88 48 96 40 58 75 30 98 9 0
Route 8: 0 89 38 16 6 52 76 79 0
Route 9: 0 64 4 12 22 39 43 77 35 66 80 0
Route 10: 0 78 92 33 10 2 67 73 0
Route 11: 0 69 50 82 5 61 63 0
Route 12: 0 91 46 97 68 19 87 54 27 34 17 55 71 0
Route 13: 0 11 0
